rcpsp/heur_output_or_constraints/Log=10/heurj60.txt
encoding rcpsp/j60.sm/j602_10.sm nv: 192339 nc: 476099 enctime: 5.95
encoding rcpsp/j60.sm/j602_10.sm nv: 35287 nc: 84891 enctime: 0.64
c File: j602_10.smnaiveor10.wcnf
c optimal
c final solution cost: 64
c CPU time: 1.506815
s OPTIMUM FOUND

c File: j602_10.smor10.wcnf
c optimal
c final solution cost: 64
c CPU time: 0.098225
s OPTIMUM FOUND


rcpsp/heur_output_or_constraints/Log=10/heurj60.txt
encoding rcpsp/j60.sm/j6021_10.sm nv: 267714 nc: 574489 enctime: 5.37
encoding rcpsp/j60.sm/j6021_10.sm nv: 90522 nc: 193057 enctime: 1.25
c File: j6021_10.smnaiveor10.wcnf
c optimal
c final solution cost: 78
c CPU time: 6.814639
s OPTIMUM FOUND

c File: j6021_10.smor10.wcnf
c optimal
c final solution cost: 78
c CPU time: 5.335253
s OPTIMUM FOUND


rcpsp/heur_output_or_constraints/Log=10/heurj60.txt
encoding rcpsp/j60.sm/j6021_1.sm nv: 280386 nc: 627495 enctime: 6.46
encoding rcpsp/j60.sm/j6021_1.sm nv: 95146 nc: 211255 enctime: 1.66
c File: j6021_1.smnaiveor10.wcnf
c optimal
c final solution cost: 98
c CPU time: 10.084569
s OPTIMUM FOUND

c File: j6021_1.smor10.wcnf
c optimal
c final solution cost: 98
c CPU time: 18.393728
s OPTIMUM FOUND


rcpsp/heur_output_or_constraints/Log=10/heurj60.txt
encoding rcpsp/j60.sm/j6021_2.sm nv: 276575 nc: 615747 enctime: 6.45
encoding rcpsp/j60.sm/j6021_2.sm nv: 110630 nc: 244857 enctime: 1.67
c File: j6021_2.smnaiveor10.wcnf
c optimal
c final solution cost: 104
c CPU time: 21.328617
s OPTIMUM FOUND

c File: j6021_2.smor10.wcnf
c optimal
c final solution cost: 104
c CPU time: 21.952221
s OPTIMUM FOUND


rcpsp/heur_output_or_constraints/Log=10/heurj60.txt
encoding rcpsp/j60.sm/j6021_3.sm nv: 324057 nc: 709847 enctime: 7.12
encoding rcpsp/j60.sm/j6021_3.sm nv: 101082 nc: 219797 enctime: 1.39
c File: j6021_3.smnaiveor10.wcnf
c optimal
c final solution cost: 83
c CPU time: 26.890527
s OPTIMUM FOUND

c File: j6021_3.smor10.wcnf
c optimal
c final solution cost: 83
c CPU time: 19.551070
s OPTIMUM FOUND


rcpsp/heur_output_or_constraints/Log=10/heurj60.txt
encoding rcpsp/j60.sm/j6021_4.sm nv: 264033 nc: 577070 enctime: 5.69
encoding rcpsp/j60.sm/j6021_4.sm nv: 101346 nc: 220220 enctime: 1.42
c File: j6021_4.smnaiveor10.wcnf
c timeout
c final solution cost: 90
c CPU time: 60.963178
s UNKNOWN

c File: j6021_4.smor10.wcnf
c timeout
c final solution cost: 90
c CPU time: 60.227952
s UNKNOWN


rcpsp/heur_output_or_constraints/Log=10/heurj60.txt
encoding rcpsp/j60.sm/j6021_5.sm nv: 343088 nc: 747344 enctime: 7.40
encoding rcpsp/j60.sm/j6021_5.sm nv: 100416 nc: 216992 enctime: 1.45
c File: j6021_5.smnaiveor10.wcnf
c optimal
c final solution cost: 84
c CPU time: 54.103397
s OPTIMUM FOUND

c File: j6021_5.smor10.wcnf
c optimal
c final solution cost: 84
c CPU time: 36.965893
s OPTIMUM FOUND


rcpsp/heur_output_or_constraints/Log=10/heurj60.txt
encoding rcpsp/j60.sm/j6021_6.sm nv: 294810 nc: 643771 enctime: 6.26
encoding rcpsp/j60.sm/j6021_6.sm nv: 104610 nc: 226971 enctime: 1.71
c File: j6021_6.smnaiveor10.wcnf
c optimal
c final solution cost: 81
c CPU time: 7.960625
s OPTIMUM FOUND

c File: j6021_6.smor10.wcnf
c optimal
c final solution cost: 81
c CPU time: 4.674350
s OPTIMUM FOUND


rcpsp/heur_output_or_constraints/Log=10/heurj60.txt
encoding rcpsp/j60.sm/j6021_7.sm nv: 324615 nc: 715235 enctime: 7.13
encoding rcpsp/j60.sm/j6021_7.sm nv: 111435 nc: 243775 enctime: 1.86
c File: j6021_7.smnaiveor10.wcnf
c optimal
c final solution cost: 99
c CPU time: 22.484964
s OPTIMUM FOUND

c File: j6021_7.smor10.wcnf
c optimal
c final solution cost: 99
c CPU time: 9.818010
s OPTIMUM FOUND


rcpsp/heur_output_or_constraints/Log=10/heurj60.txt
encoding rcpsp/j60.sm/j6021_8.sm nv: 294465 nc: 655811 enctime: 6.99
encoding rcpsp/j60.sm/j6021_8.sm nv: 102843 nc: 227441 enctime: 1.53
c File: j6021_8.smnaiveor10.wcnf
c optimal
c final solution cost: 102
c CPU time: 52.054842
s OPTIMUM FOUND

c File: j6021_8.smor10.wcnf
c optimal
c final solution cost: 102
c CPU time: 32.703019
s OPTIMUM FOUND


rcpsp/heur_output_or_constraints/Log=10/heurj60.txt
encoding rcpsp/j60.sm/j6021_9.sm nv: 371358 nc: 817561 enctime: 8.31
encoding rcpsp/j60.sm/j6021_9.sm nv: 107916 nc: 235648 enctime: 1.52
c File: j6021_9.smnaiveor10.wcnf
c timeout
c final solution cost: 87
c CPU time: 61.326557
s UNKNOWN

c File: j6021_9.smor10.wcnf
c timeout
c final solution cost: 87
c CPU time: 60.226300
s UNKNOWN


rcpsp/heur_output_or_constraints/Log=10/heurj60.txt
encoding rcpsp/j60.sm/j602_1.sm nv: 165100 nc: 387634 enctime: 4.27
encoding rcpsp/j60.sm/j602_1.sm nv: 33528 nc: 76834 enctime: 0.54
c File: j602_1.smnaiveor10.wcnf
c optimal
c final solution cost: 65
c CPU time: 0.955824
s OPTIMUM FOUND

c File: j602_1.smor10.wcnf
c optimal
c final solution cost: 65
c CPU time: 0.079988
s OPTIMUM FOUND


rcpsp/heur_output_or_constraints/Log=10/heurj60.txt
encoding rcpsp/j60.sm/j6022_10.sm nv: 463032 nc: 982201 enctime: 8.91
encoding rcpsp/j60.sm/j6022_10.sm nv: 100536 nc: 211385 enctime: 1.36
c File: j6022_10.smnaiveor10.wcnf
c optimal
c final solution cost: 68
c CPU time: 2.002514
s OPTIMUM FOUND

c File: j6022_10.smor10.wcnf
c optimal
c final solution cost: 68
c CPU time: 0.246387
s OPTIMUM FOUND


rcpsp/heur_output_or_constraints/Log=10/heurj60.txt
encoding rcpsp/j60.sm/j6022_1.sm nv: 444312 nc: 931699 enctime: 8.21
encoding rcpsp/j60.sm/j6022_1.sm nv: 97284 nc: 202271 enctime: 1.29
c File: j6022_1.smnaiveor10.wcnf
c optimal
c final solution cost: 62
c CPU time: 1.928950
s OPTIMUM FOUND

c File: j6022_1.smor10.wcnf
c optimal
c final solution cost: 62
c CPU time: 0.294945
s OPTIMUM FOUND


rcpsp/heur_output_or_constraints/Log=10/heurj60.txt
encoding rcpsp/j60.sm/j6022_2.sm nv: 568146 nc: 1202621 enctime: 11.21
encoding rcpsp/j60.sm/j6022_2.sm nv: 146004 nc: 306999 enctime: 1.96
c File: j6022_2.smnaiveor10.wcnf
c optimal
c final solution cost: 83
c CPU time: 2.431018
s OPTIMUM FOUND

c File: j6022_2.smor10.wcnf
c optimal
c final solution cost: 83
c CPU time: 0.450151
s OPTIMUM FOUND


rcpsp/heur_output_or_constraints/Log=10/heurj60.txt
encoding rcpsp/j60.sm/j6022_3.sm nv: 474336 nc: 1004190 enctime: 9.18
encoding rcpsp/j60.sm/j6022_3.sm nv: 106872 nc: 224333 enctime: 1.42
c File: j6022_3.smnaiveor10.wcnf
c optimal
c final solution cost: 67
c CPU time: 2.112839
s OPTIMUM FOUND

c File: j6022_3.smor10.wcnf
c optimal
c final solution cost: 67
c CPU time: 0.520385
s OPTIMUM FOUND


rcpsp/heur_output_or_constraints/Log=10/heurj60.txt
encoding rcpsp/j60.sm/j6022_4.sm nv: 541800 nc: 1154262 enctime: 10.80
encoding rcpsp/j60.sm/j6022_4.sm nv: 124915 nc: 263984 enctime: 1.65
c File: j6022_4.smnaiveor10.wcnf
c optimal
c final solution cost: 72
c CPU time: 5.744360
s OPTIMUM FOUND

c File: j6022_4.smor10.wcnf
c optimal
c final solution cost: 72
c CPU time: 1.330342
s OPTIMUM FOUND


rcpsp/heur_output_or_constraints/Log=10/heurj60.txt
encoding rcpsp/j60.sm/j6022_5.sm nv: 425040 nc: 895861 enctime: 8.01
encoding rcpsp/j60.sm/j6022_5.sm nv: 106260 nc: 222265 enctime: 1.40
c File: j6022_5.smnaiveor10.wcnf
c optimal
c final solution cost: 76
c CPU time: 1.657121
s OPTIMUM FOUND

c File: j6022_5.smor10.wcnf
c optimal
c final solution cost: 76
c CPU time: 0.239278
s OPTIMUM FOUND


rcpsp/heur_output_or_constraints/Log=10/heurj60.txt
encoding rcpsp/j60.sm/j6022_6.sm nv: 542080 nc: 1146911 enctime: 10.76
encoding rcpsp/j60.sm/j6022_6.sm nv: 132440 nc: 278155 enctime: 1.77
c File: j6022_6.smnaiveor10.wcnf
c optimal
c final solution cost: 79
c CPU time: 2.678820
s OPTIMUM FOUND

c File: j6022_6.smor10.wcnf
c optimal
c final solution cost: 79
c CPU time: 0.362849
s OPTIMUM FOUND


rcpsp/heur_output_or_constraints/Log=10/heurj60.txt
encoding rcpsp/j60.sm/j6022_7.sm nv: 573000 nc: 1220168 enctime: 11.54
encoding rcpsp/j60.sm/j6022_7.sm nv: 116128 nc: 244830 enctime: 1.61
c File: j6022_7.smnaiveor10.wcnf
c optimal
c final solution cost: 69
c CPU time: 3.474901
s OPTIMUM FOUND

c File: j6022_7.smor10.wcnf
c optimal
c final solution cost: 69
c CPU time: 0.547812
s OPTIMUM FOUND


rcpsp/heur_output_or_constraints/Log=10/heurj60.txt
encoding rcpsp/j60.sm/j6022_8.sm nv: 490173 nc: 1030189 enctime: 9.45
encoding rcpsp/j60.sm/j6022_8.sm nv: 103431 nc: 215425 enctime: 1.38
c File: j6022_8.smnaiveor10.wcnf
c optimal
c final solution cost: 59
c CPU time: 2.033246
s OPTIMUM FOUND

c File: j6022_8.smor10.wcnf
c optimal
c final solution cost: 59
c CPU time: 0.678119
s OPTIMUM FOUND


rcpsp/heur_output_or_constraints/Log=10/heurj60.txt
encoding rcpsp/j60.sm/j6022_9.sm nv: 599508 nc: 1263489 enctime: 11.48
encoding rcpsp/j60.sm/j6022_9.sm nv: 113022 nc: 235869 enctime: 1.57
c File: j6022_9.smnaiveor10.wcnf
c optimal
c final solution cost: 65
c CPU time: 2.647978
s OPTIMUM FOUND

c File: j6022_9.smor10.wcnf
c optimal
c final solution cost: 65
c CPU time: 0.341094
s OPTIMUM FOUND


rcpsp/heur_output_or_constraints/Log=10/heurj60.txt
encoding rcpsp/j60.sm/j602_2.sm nv: 172344 nc: 412945 enctime: 4.89
encoding rcpsp/j60.sm/j602_2.sm nv: 32565 nc: 75913 enctime: 0.56
c File: j602_2.smnaiveor10.wcnf
c optimal
c final solution cost: 64
c CPU time: 1.132839
s OPTIMUM FOUND

c File: j602_2.smor10.wcnf
c optimal
c final solution cost: 64
c CPU time: 0.082972
s OPTIMUM FOUND


rcpsp/heur_output_or_constraints/Log=10/heurj60.txt
encoding rcpsp/j60.sm/j6023_10.sm nv: 499356 nc: 1030226 enctime: 8.96
encoding rcpsp/j60.sm/j6023_10.sm nv: 120120 nc: 246339 enctime: 1.57
c File: j6023_10.smnaiveor10.wcnf
c optimal
c final solution cost: 68
c CPU time: 1.954792
s OPTIMUM FOUND

c File: j6023_10.smor10.wcnf
c optimal
c final solution cost: 68
c CPU time: 0.311450
s OPTIMUM FOUND


rcpsp/heur_output_or_constraints/Log=10/heurj60.txt
encoding rcpsp/j60.sm/j6023_1.sm nv: 646290 nc: 1369549 enctime: 12.77
encoding rcpsp/j60.sm/j6023_1.sm nv: 113560 nc: 238056 enctime: 1.57
c File: j6023_1.smnaiveor10.wcnf
c optimal
c final solution cost: 67
c CPU time: 2.861099
s OPTIMUM FOUND

c File: j6023_1.smor10.wcnf
c optimal
c final solution cost: 67
c CPU time: 0.234684
s OPTIMUM FOUND


rcpsp/heur_output_or_constraints/Log=10/heurj60.txt
encoding rcpsp/j60.sm/j6023_2.sm nv: 705948 nc: 1468514 enctime: 12.99
encoding rcpsp/j60.sm/j6023_2.sm nv: 138810 nc: 286476 enctime: 1.92
c File: j6023_2.smnaiveor10.wcnf
c optimal
c final solution cost: 63
c CPU time: 2.784189
s OPTIMUM FOUND

c File: j6023_2.smor10.wcnf
c optimal
c final solution cost: 63
c CPU time: 0.439588
s OPTIMUM FOUND


rcpsp/heur_output_or_constraints/Log=10/heurj60.txt
encoding rcpsp/j60.sm/j6023_3.sm nv: 530204 nc: 1113725 enctime: 10.42
encoding rcpsp/j60.sm/j6023_3.sm nv: 116581 nc: 242967 enctime: 1.64
c File: j6023_3.smnaiveor10.wcnf
c optimal
c final solution cost: 69
c CPU time: 2.098126
s OPTIMUM FOUND

c File: j6023_3.smor10.wcnf
c optimal
c final solution cost: 69
c CPU time: 0.324609
s OPTIMUM FOUND


rcpsp/heur_output_or_constraints/Log=10/heurj60.txt
encoding rcpsp/j60.sm/j6023_4.sm nv: 549400 nc: 1152505 enctime: 10.76
encoding rcpsp/j60.sm/j6023_4.sm nv: 124640 nc: 259473 enctime: 1.68
c File: j6023_4.smnaiveor10.wcnf
c optimal
c final solution cost: 75
c CPU time: 1.971169
s OPTIMUM FOUND

c File: j6023_4.smor10.wcnf
c optimal
c final solution cost: 75
c CPU time: 0.250403
s OPTIMUM FOUND


rcpsp/heur_output_or_constraints/Log=10/heurj60.txt
encoding rcpsp/j60.sm/j6023_5.sm nv: 656676 nc: 1363623 enctime: 12.08
encoding rcpsp/j60.sm/j6023_5.sm nv: 137751 nc: 283973 enctime: 1.87
c File: j6023_5.smnaiveor10.wcnf
c optimal
c final solution cost: 64
c CPU time: 2.278398
s OPTIMUM FOUND

c File: j6023_5.smor10.wcnf
c optimal
c final solution cost: 64
c CPU time: 0.351609
s OPTIMUM FOUND


rcpsp/heur_output_or_constraints/Log=10/heurj60.txt
encoding rcpsp/j60.sm/j6023_6.sm nv: 463866 nc: 970929 enctime: 9.08
encoding rcpsp/j60.sm/j6023_6.sm nv: 124488 nc: 258968 enctime: 1.69
c File: j6023_6.smnaiveor10.wcnf
c optimal
c final solution cost: 81
c CPU time: 1.681226
s OPTIMUM FOUND

c File: j6023_6.smor10.wcnf
c optimal
c final solution cost: 81
c CPU time: 0.358019
s OPTIMUM FOUND


rcpsp/heur_output_or_constraints/Log=10/heurj60.txt
encoding rcpsp/j60.sm/j6023_7.sm nv: 537882 nc: 1118454 enctime: 9.45
encoding rcpsp/j60.sm/j6023_7.sm nv: 107919 nc: 222635 enctime: 1.53
c File: j6023_7.smnaiveor10.wcnf
c optimal
c final solution cost: 60
c CPU time: 1.856880
s OPTIMUM FOUND

c File: j6023_7.smor10.wcnf
c optimal
c final solution cost: 60
c CPU time: 0.254734
s OPTIMUM FOUND


rcpsp/heur_output_or_constraints/Log=10/heurj60.txt
encoding rcpsp/j60.sm/j6023_8.sm nv: 517149 nc: 1085322 enctime: 10.03
encoding rcpsp/j60.sm/j6023_8.sm nv: 113369 nc: 235902 enctime: 1.58
c File: j6023_8.smnaiveor10.wcnf
c optimal
c final solution cost: 72
c CPU time: 1.865756
s OPTIMUM FOUND

c File: j6023_8.smor10.wcnf
c optimal
c final solution cost: 72
c CPU time: 0.229507
s OPTIMUM FOUND


rcpsp/heur_output_or_constraints/Log=10/heurj60.txt
encoding rcpsp/j60.sm/j6023_9.sm nv: 469989 nc: 979771 enctime: 8.88
encoding rcpsp/j60.sm/j6023_9.sm nv: 98865 nc: 204339 enctime: 1.31
c File: j6023_9.smnaiveor10.wcnf
c optimal
c final solution cost: 64
c CPU time: 1.686962
s OPTIMUM FOUND

c File: j6023_9.smor10.wcnf
c optimal
c final solution cost: 64
c CPU time: 0.213298
s OPTIMUM FOUND


rcpsp/heur_output_or_constraints/Log=10/heurj60.txt
encoding rcpsp/j60.sm/j602_3.sm nv: 201880 nc: 500980 enctime: 6.43
encoding rcpsp/j60.sm/j602_3.sm nv: 40170 nc: 97176 enctime: 0.73
c File: j602_3.smnaiveor10.wcnf
c optimal
c final solution cost: 77
c CPU time: 1.549112
s OPTIMUM FOUND

c File: j602_3.smor10.wcnf
c optimal
c final solution cost: 77
c CPU time: 0.115909
s OPTIMUM FOUND


rcpsp/heur_output_or_constraints/Log=10/heurj60.txt
encoding rcpsp/j60.sm/j6024_10.sm nv: 582705 nc: 1215972 enctime: 11.31
encoding rcpsp/j60.sm/j6024_10.sm nv: 113163 nc: 234076 enctime: 1.56
c File: j6024_10.smnaiveor10.wcnf
c optimal
c final solution cost: 66
c CPU time: 2.017451
s OPTIMUM FOUND

c File: j6024_10.smor10.wcnf
c optimal
c final solution cost: 66
c CPU time: 0.226084
s OPTIMUM FOUND


rcpsp/heur_output_or_constraints/Log=10/heurj60.txt
encoding rcpsp/j60.sm/j6024_1.sm nv: 450585 nc: 931118 enctime: 8.27
encoding rcpsp/j60.sm/j6024_1.sm nv: 104346 nc: 214112 enctime: 1.45
c File: j6024_1.smnaiveor10.wcnf
c optimal
c final solution cost: 65
c CPU time: 1.553187
s OPTIMUM FOUND

c File: j6024_1.smor10.wcnf
c optimal
c final solution cost: 65
c CPU time: 0.221415
s OPTIMUM FOUND


rcpsp/heur_output_or_constraints/Log=10/heurj60.txt
encoding rcpsp/j60.sm/j6024_2.sm nv: 685224 nc: 1390392 enctime: 12.13
encoding rcpsp/j60.sm/j6024_2.sm nv: 107136 nc: 215568 enctime: 1.08
c File: j6024_2.smnaiveor10.wcnf
c optimal
c final solution cost: 47
c CPU time: 1.993830
s OPTIMUM FOUND

c File: j6024_2.smor10.wcnf
c optimal
c final solution cost: 47
c CPU time: 0.202862
s OPTIMUM FOUND


rcpsp/heur_output_or_constraints/Log=10/heurj60.txt
encoding rcpsp/j60.sm/j6024_3.sm nv: 638048 nc: 1308990 enctime: 10.99
encoding rcpsp/j60.sm/j6024_3.sm nv: 138176 nc: 281694 enctime: 1.79
c File: j6024_3.smnaiveor10.wcnf
c optimal
c final solution cost: 67
c CPU time: 1.945228
s OPTIMUM FOUND

c File: j6024_3.smor10.wcnf
c optimal
c final solution cost: 67
c CPU time: 0.287836
s OPTIMUM FOUND


rcpsp/heur_output_or_constraints/Log=10/heurj60.txt
encoding rcpsp/j60.sm/j6024_4.sm nv: 669768 nc: 1392822 enctime: 12.81
encoding rcpsp/j60.sm/j6024_4.sm nv: 140008 nc: 289062 enctime: 1.94
c File: j6024_4.smnaiveor10.wcnf
c optimal
c final solution cost: 73
c CPU time: 2.318795
s OPTIMUM FOUND

c File: j6024_4.smor10.wcnf
c optimal
c final solution cost: 73
c CPU time: 0.286500
s OPTIMUM FOUND


rcpsp/heur_output_or_constraints/Log=10/heurj60.txt
encoding rcpsp/j60.sm/j6024_5.sm nv: 625124 nc: 1287587 enctime: 11.03
encoding rcpsp/j60.sm/j6024_5.sm nv: 143956 nc: 294751 enctime: 1.91
c File: j6024_5.smnaiveor10.wcnf
c optimal
c final solution cost: 70
c CPU time: 1.975360
s OPTIMUM FOUND

c File: j6024_5.smor10.wcnf
c optimal
c final solution cost: 70
c CPU time: 0.318643
s OPTIMUM FOUND


